(set-info :smt-lib-version 2.6)
(set-logic UF)
(set-info :source |
Generated by: David Deharbe, CLEARSY
Generated on: 2019-09-09
Generator: bxml;pog;pog2smt (Atelier B)
Application: B-method
Target solver: CVC4, Z3
|)
(set-info :license "https://creativecommons.org/licenses/by-nc/4.0/")
(set-info :category "industrial")
(set-info :status unknown)
; Prelude
(declare-sort U 0)
(declare-fun |*i| (U U) U)
(declare-fun |+i| (U U) U)
(declare-fun |-i| (U U) U)
(declare-fun idiv (U U) U)
(declare-fun |*r| (U U) U)
(declare-fun |+r| (U U) U)
(declare-fun |-r| (U U) U)
(declare-fun rdiv (U U) U)
(declare-fun modulo (U U) U)
(declare-fun |<i| (U U) Bool)
(declare-fun |<=i| (U U) Bool)
(declare-fun |>i| (U U) Bool)
(declare-fun |>=i| (U U) Bool)
(declare-fun |<r| (U U) Bool)
(declare-fun |<=r| (U U) Bool)
(declare-fun |>r| (U U) Bool)
(declare-fun |>=r| (U U) Bool)
(declare-fun iuminus (U) U)
(declare-fun ruminus (U) U)
(declare-fun TRUE () U)
(declare-fun FALSE () U)
(assert (not (= TRUE FALSE)))
(declare-fun empty () U)
(declare-fun bool (Bool) U)
(declare-fun BOOL () U)
(declare-fun INT () U)
(declare-fun INTEGER () U)
(declare-fun NAT () U)
(declare-fun NAT1 () U)
(declare-fun NATURAL () U)
(declare-fun NATURAL1 () U)
(declare-fun FLOAT () U)
(declare-fun MaxInt () U)
(declare-fun MinInt () U)
(declare-fun |STRING| () U)
(declare-fun REAL () U)
(declare-fun set_prod (U U) U)
(declare-fun set_diff (U U) U)
(declare-fun mapplet (U U) U)
(declare-fun |**i| (U U) U)
(declare-fun |**r| (U U) U)
(declare-fun |+->| (U U) U)
(declare-fun |+->>| (U U) U)
(declare-fun |-->| (U U) U)
(declare-fun |-->>| (U U) U)
(declare-fun |<->| (U U) U)
(declare-fun |>+>| (U U) U)
(declare-fun |>->| (U U) U)
(declare-fun |>+>>| (U U) U)
(declare-fun |>->>| (U U) U)
(declare-fun |->| (U U) U)
(declare-fun interval (U U) U)
(declare-fun composition (U U) U)
(declare-fun binary_inter (U U) U)
(declare-fun restriction_head (U U) U)
(declare-fun semicolon (U U) U)
(declare-fun |<+| (U U) U)
(declare-fun |<-| (U U) U)
(declare-fun domain_subtraction (U U) U)
(declare-fun domain_restriction (U U) U)
(declare-fun |><| (U U) U)
(declare-fun parallel_product (U U) U)
(declare-fun binary_union (U U) U)
(declare-fun restriction_tail (U U) U)
(declare-fun concatenate (U U) U)
(declare-fun range_restriction (U U) U)
(declare-fun range_subtraction (U U) U)
(declare-fun image (U U) U)
(declare-fun apply (U U) U)
(declare-fun prj1 (U U) U)
(declare-fun prj2 (U U) U)
(declare-fun iterate (U U) U)
(declare-fun |const| (U U) U)
(declare-fun rank (U U) U)
(declare-fun father (U U) U)
(declare-fun subtree (U U) U)
(declare-fun arity (U U) U)
(declare-fun |+f| (U U) U)
(declare-fun |-f| (U U) U)
(declare-fun |*f| (U U) U)
(declare-fun |fdiv| (U U) U)
(declare-fun tbin (U U U) U)
(declare-fun son (U U U) U)
(declare-fun mem (U U) Bool)
(declare-fun subset (U U) Bool)
(declare-fun strict_subset (U U) Bool)
(declare-fun |<=f| (U U) Bool)
(declare-fun |<f| (U U) Bool)
(declare-fun |>=f| (U U) Bool)
(declare-fun |>f| (U U) Bool)
(declare-fun imax (U) U)
(declare-fun imin (U) U)
(declare-fun rmax (U) U)
(declare-fun rmin (U) U)
(declare-fun card (U) U)
(declare-fun dom (U) U)
(declare-fun ran (U) U)
(declare-fun POW (U) U)
(declare-fun POW1 (U) U)
(declare-fun FIN (U) U)
(declare-fun FIN1 (U) U)
(declare-fun union (U) U)
(declare-fun inter (U) U)
(declare-fun seq (U) U)
(declare-fun seq1 (U) U)
(declare-fun iseq (U) U)
(declare-fun iseq1 (U) U)
(declare-fun inverse (U) U)
(declare-fun size (U) U)
(declare-fun perm (U) U)
(declare-fun first (U) U)
(declare-fun last (U) U)
(declare-fun id (U) U)
(declare-fun closure (U) U)
(declare-fun closure1 (U) U)
(declare-fun tail (U) U)
(declare-fun front (U) U)
(declare-fun reverse (U) U)
(declare-fun rev (U) U)
(declare-fun conc (U) U)
(declare-fun succ (U) U)
(declare-fun pred (U) U)
(declare-fun rel (U) U)
(declare-fun fnc (U) U)
(declare-fun real (U) U)
(declare-fun floor (U) U)
(declare-fun ceiling (U) U)
(declare-fun tree (U) U)
(declare-fun btree (U) U)
(declare-fun top (U) U)
(declare-fun sons (U) U)
(declare-fun prefix (U) U)
(declare-fun postfix (U) U)
(declare-fun sizet (U) U)
(declare-fun mirror (U) U)
(declare-fun left (U) U)
(declare-fun right (U) U)
(declare-fun infix (U) U)
(declare-fun ubin (U) U)
(declare-fun SEQ (U) U)
(declare-fun SET (U) U)
; Opaque formulas
(declare-fun e0 () U)
(declare-fun g_s0_1 () U)
(declare-fun g_s1_2 () U)
(declare-fun g_s10$1_13 () U)
(declare-fun g_s10$2_26 () U)
(declare-fun g_s11$1_14 () U)
(declare-fun g_s11$2_29 () U)
(declare-fun g_s12$1_15 () U)
(declare-fun g_s12$2_25 () U)
(declare-fun g_s12$3_28 () U)
(declare-fun g_s13$1_16 () U)
(declare-fun g_s13$2_21 () U)
(declare-fun g_s14$1_17 () U)
(declare-fun g_s14$2_22 () U)
(declare-fun g_s15$1_18 () U)
(declare-fun g_s15$2_23 () U)
(declare-fun g_s16$1_19 () U)
(declare-fun g_s16$2_24 () U)
(declare-fun g_s2_3 () U)
(declare-fun g_s20_27 () U)
(declare-fun g_s3_4 () U)
(declare-fun g_s4_5 () U)
(declare-fun g_s5_6 () U)
(declare-fun g_s6_7 () U)
(declare-fun g_s7_8 () U)
(declare-fun g_s8_9 () U)
(declare-fun g_s8$1_11 () U)
(declare-fun g_s8$2_20 () U)
(declare-fun g_s9_10 () U)
(declare-fun g_s9$1_12 () U)
; Defines
(define-fun |def_B definitions| () Bool (and (= NAT (interval e0 MaxInt)) (= INT (interval MinInt MaxInt))))
(define-fun |def_ctx| () Bool (and (not (= g_s0_1 empty)) (not (= g_s1_2 empty)) (subset g_s2_3 g_s0_1) (mem g_s3_4 g_s0_1) (not (mem g_s3_4 g_s2_3)) (mem g_s4_5 (|+->| NAT g_s0_1)) (mem g_s4_5 (perm g_s2_3)) (subset g_s5_6 g_s1_2) (mem g_s6_7 g_s1_2) (not (mem g_s6_7 g_s5_6)) (mem g_s7_8 (|+->| NAT g_s1_2)) (mem g_s7_8 (perm g_s5_6))))
(define-fun |def_seext| () Bool true)
(define-fun |def_mchcst| () Bool true)
(define-fun |def_aprp| () Bool true)
(define-fun |def_abs| () Bool (and (subset g_s8_9 g_s2_3) (subset g_s9_10 g_s5_6)))
(define-fun |def_inv| () Bool (and (= g_s8_9 g_s8$1_11) (= g_s9_10 g_s9$1_12) (mem g_s10$1_13 g_s0_1) (mem g_s11$1_14 g_s1_2) (mem g_s12$1_15 BOOL)))
(define-fun |def_ass| () Bool true)
(define-fun |def_sets| () Bool true)
(define-fun |def_imlprp| () Bool true)
(define-fun |def_imprp| () Bool true)
(define-fun |def_imext| () Bool (and (subset g_s8$1_11 g_s2_3) (subset g_s9$1_12 g_s5_6) (subset g_s13$1_16 g_s2_3) (subset g_s14$1_17 g_s2_3) (= (binary_inter g_s14$1_17 g_s13$1_16) empty) (subset g_s15$1_18 g_s5_6) (subset g_s16$1_19 g_s5_6) (= (binary_inter g_s16$1_19 g_s15$1_18) empty)))
; PO group 0 
(push 1)
(assert |def_B definitions|)
(assert |def_ctx|)
(assert |def_mchcst|)
(assert |def_aprp|)
(assert |def_imlprp|)
(assert |def_imprp|)
(assert |def_imext|)
(assert |def_seext|)
(define-fun lh_1 () Bool (mem g_s8$2_20 (POW g_s2_3)))
(define-fun lh_2 () Bool (subset g_s13$2_21 g_s2_3))
(define-fun lh_3 () Bool (subset g_s14$2_22 g_s2_3))
(define-fun lh_4 () Bool (= (binary_inter g_s14$2_22 g_s13$2_21) empty))
(define-fun lh_5 () Bool (subset g_s15$2_23 g_s5_6))
(define-fun lh_6 () Bool (subset g_s16$2_24 g_s5_6))
(define-fun lh_7 () Bool (= (binary_inter g_s16$2_24 g_s15$2_23) empty))
(define-fun lh_8 () Bool (subset g_s8$2_20 g_s2_3))
(define-fun lh_9 () Bool (subset empty g_s5_6))
; PO 1 in group 0
(assert (not (=> (and lh_1 lh_2 lh_3 lh_4 lh_5 lh_6 lh_7 lh_8 lh_9) (mem empty (POW g_s5_6)))))
(check-sat)
(pop 1)
; PO group 1 
(push 1)
(assert |def_B definitions|)
(assert |def_ctx|)
(assert |def_mchcst|)
(assert |def_aprp|)
(assert |def_imlprp|)
(assert |def_imprp|)
(assert |def_imext|)
(assert |def_seext|)
(assert |def_abs|)
(assert |def_inv|)
(assert |def_ass|)
(define-fun lh_1 () Bool (mem g_s12$2_25 BOOL))
(define-fun lh_2 () Bool (mem g_s10$2_26 g_s0_1))
(define-fun lh_3 () Bool (subset g_s2_3 g_s2_3))
(define-fun lh_4 () Bool (subset empty g_s2_3))
(define-fun lh_5 () Bool (= (binary_union empty g_s2_3) g_s2_3))
(define-fun lh_6 () Bool (= (binary_inter empty g_s2_3) empty))
(define-fun lh_7 () Bool (= g_s12$2_25 (bool (not (= g_s2_3 empty)))))
(define-fun lh_8 () Bool (= g_s12$2_25 TRUE))
(define-fun lh_9 () Bool (not (= g_s2_3 empty)))
(define-fun lh_10 () Bool (mem g_s20_27 g_s0_1))
(define-fun lh_11 () Bool (mem g_s20_27 g_s2_3))
(define-fun lh_12 () Bool (subset g_s8$2_20 g_s2_3))
; PO 1 in group 1
(push 1)
(assert (not (subset empty g_s2_3)))
(set-info :status unknown)
(check-sat)
(pop 1)
; PO 2 in group 1
(push 1)
(assert (not (subset g_s2_3 g_s2_3)))
(set-info :status unknown)
(check-sat)
(pop 1)
; PO 3 in group 1
(push 1)
(assert (not (= (binary_inter empty g_s2_3) empty)))
(set-info :status unknown)
(check-sat)
(pop 1)
; PO 4 in group 1
(push 1)
(assert (not (= (binary_union empty g_s2_3) g_s2_3)))
(set-info :status unknown)
(check-sat)
(pop 1)
; PO 5 in group 1
(push 1)
(assert (not (=> (and lh_1 lh_2 lh_3 lh_4 lh_5 lh_6 lh_7) (|<=i| e0 (card g_s2_3)))))
(set-info :status unknown)
(check-sat)
(pop 1)
; PO 6 in group 1
(push 1)
(assert (not (=> (and lh_1 lh_2 lh_3 lh_4 lh_5 lh_6 lh_7 lh_8) (not (= g_s2_3 empty)))))
(set-info :status unknown)
(check-sat)
(pop 1)
; PO 7 in group 1
(push 1)
(assert (not (=> (and lh_1 lh_2 lh_3 lh_4 lh_5 lh_6 lh_7 lh_8 lh_9 lh_10 lh_11 lh_12) (subset (set_diff g_s2_3 (SET g_s20_27)) g_s2_3))))
(set-info :status unknown)
(check-sat)
(pop 1)
; PO 8 in group 1
(push 1)
(assert (not (=> (and lh_1 lh_2 lh_3 lh_4 lh_5 lh_6 lh_7 lh_8 lh_9 lh_10 lh_11 lh_12) (subset (binary_union empty (SET g_s20_27)) g_s2_3))))
(set-info :status unknown)
(check-sat)
(pop 1)
; PO 9 in group 1
(push 1)
(assert (not (=> (and lh_1 lh_2 lh_3 lh_4 lh_5 lh_6 lh_7 lh_8 lh_9 lh_10 lh_11 lh_12) (= (bool (not (= g_s2_3 (SET g_s20_27)))) (bool (not (= (set_diff g_s2_3 (SET g_s20_27)) empty)))))))
(set-info :status unknown)
(check-sat)
(pop 1)
; PO 10 in group 1
(push 1)
(assert (not (=> (and lh_1 lh_2 lh_3 lh_4 lh_5 lh_6 lh_7 lh_8 lh_9 lh_10 lh_11 lh_12) (= (binary_inter (binary_union empty (SET g_s20_27)) (set_diff g_s2_3 (SET g_s20_27))) empty))))
(set-info :status unknown)
(check-sat)
(pop 1)
; PO 11 in group 1
(push 1)
(assert (not (=> (and lh_1 lh_2 lh_3 lh_4 lh_5 lh_6 lh_7 lh_8 lh_9 lh_10 lh_11 lh_12) (= (binary_union (binary_union empty (SET g_s20_27)) (set_diff g_s2_3 (SET g_s20_27))) g_s2_3))))
(set-info :status unknown)
(check-sat)
(pop 1)
; PO 12 in group 1
(push 1)
(assert (not (=> (and lh_1 lh_2 lh_3 lh_4 lh_5 lh_6 lh_7 lh_8 lh_9 lh_10 lh_11 lh_12) (|<i| (card (set_diff g_s2_3 (SET g_s20_27))) (card g_s2_3)))))
(set-info :status unknown)
(check-sat)
(pop 1)
(pop 1)
; PO group 2 
(push 1)
(assert |def_B definitions|)
(assert |def_ctx|)
(assert |def_mchcst|)
(assert |def_aprp|)
(assert |def_imlprp|)
(assert |def_imprp|)
(assert |def_imext|)
(assert |def_seext|)
(assert |def_abs|)
(assert |def_inv|)
(assert |def_ass|)
(define-fun lh_1 () Bool (mem g_s12$2_25 BOOL))
(define-fun lh_2 () Bool (mem g_s10$2_26 g_s0_1))
(define-fun lh_3 () Bool (subset g_s2_3 g_s2_3))
(define-fun lh_4 () Bool (subset empty g_s2_3))
(define-fun lh_5 () Bool (= (binary_union empty g_s2_3) g_s2_3))
(define-fun lh_6 () Bool (= (binary_inter empty g_s2_3) empty))
(define-fun lh_7 () Bool (= g_s12$2_25 (bool (not (= g_s2_3 empty)))))
(define-fun lh_8 () Bool (not (= g_s12$2_25 TRUE)))
(define-fun lh_9 () Bool (mem g_s12$3_28 BOOL))
(define-fun lh_10 () Bool (mem g_s11$2_29 g_s1_2))
(define-fun lh_11 () Bool (subset g_s5_6 g_s5_6))
(define-fun lh_12 () Bool (subset empty g_s5_6))
(define-fun lh_13 () Bool (= (binary_union empty g_s5_6) g_s5_6))
(define-fun lh_14 () Bool (= (binary_inter empty g_s5_6) empty))
(define-fun lh_15 () Bool (= g_s12$3_28 (bool (not (= g_s5_6 empty)))))
; PO 1 in group 2
(push 1)
(assert (not (=> (and lh_1 lh_2 lh_3 lh_4 lh_5 lh_6 lh_7) (mem g_s2_3 (FIN g_s2_3)))))
(set-info :status unknown)
(check-sat)
(pop 1)
; PO 2 in group 2
(push 1)
(assert (not (=> (and lh_1 lh_2 lh_3 lh_4 lh_5 lh_6 lh_7 lh_8 lh_9 lh_10 lh_11 lh_12 lh_13 lh_14 lh_15) (mem g_s5_6 (FIN g_s5_6)))))
(set-info :status unknown)
(check-sat)
(pop 1)
(pop 1)
(exit)